80 8
34 66
92 7
39 3
83 90
35 62
80 31
40 66
72 77
98 6
7 69
57 24
69 97
33 31
47 48
65 74
33 11
86 5
36 13
38 48
38 35
100 5
43 17
54 76
1 27
87 49
96 60
41 2
84 36
63 71
72 4
39 70
97 10
20 89
99 36
59 22
50 16
31 18
23 77
57 81
82 70
54 91
36 25
33 69
38 28
57 77
49 48
73 69
53 42
48 41
17 64
1 64
91 97
10 89
20 55
89 36
96 75
92 83
4 71
12 95
76 57
8 86
44 97
24 31
43 61
20 94
74 88
29 41
24 24
14 38
29 60
71 97
20 68
73 16
93 71
67 49
56 43
56 10
94 97
65 80
84 80
488 522
454 476
534 565
435 456
435 465
621 662
625 650
641 684
